&CONTROL
  calculation = 'relax'
  etot_conv_thr =   5.6300000000d-03
  forc_conv_thr =   1.0000000000d-04
  outdir = './out/'
  prefix = 'aiida'
  pseudo_dir = './pseudo/'
  tprnfor = .true.
  tstress = .true.
  verbosity = 'high'
/
&SYSTEM
  degauss =   1.4699723600d-02
  ecutrho =   1.0800000000d+03
  ecutwfc =   9.0000000000d+01
  ibrav = 0
  nat = 563
  nosym = .false.
  nspin = 2
  ntyp = 3
  occupations = 'smearing'
  smearing = 'cold'
  starting_magnetization(1) =   3.1250000000d-01
  starting_magnetization(2) =   1.0000000000d-01
  starting_magnetization(3) =   1.0000000000d-01
  input_dft = 'rvv10'
/
&ELECTRONS
  conv_thr =   1.1260000000d-07
  electron_maxstep = 80
  mixing_beta =   4.0000000000d-01
/
ATOMIC_SPECIES
Fe     55.845 Fe.pbesol-spn-kjpaw_psl.0.2.1.UPF
H      1.00794 H.pbesol-rrkjus_psl.1.0.0.UPF
O      15.9994 O.pbesol-n-kjpaw_psl.0.1.UPF
ATOMIC_POSITIONS crystal
Fe	0.0000000000	0.0714290000	0.0555560000	1	1	1
Fe	0.0000000000	0.2142860000	0.0555560000	1	1	1
Fe	0.0000000000	0.3571430000	0.0555560000	1	1	1
Fe	0.0000000000	0.5000000000	0.0555560000	1	1	1
Fe	0.0000000000	0.6428580000	0.0555560000	1	1	1
Fe	0.0000000000	0.7857150000	0.0555560000	1	1	1
Fe	0.0000000000	0.9285720000	0.0555560000	1	1	1
Fe	0.1000000000	0.0714290000	0.0555560000	1	1	1
Fe	0.1000000000	0.2142860000	0.0555560000	1	1	1
Fe	0.1000000000	0.3571430000	0.0555560000	1	1	1
Fe	0.1000000000	0.5000000000	0.0555560000	1	1	1
Fe	0.1000000000	0.6428580000	0.0555560000	1	1	1
Fe	0.1000000000	0.7857150000	0.0555560000	1	1	1
Fe	0.1000000000	0.9285720000	0.0555560000	1	1	1
Fe	0.2000000000	0.0714290000	0.0555560000	1	1	1
Fe	0.2000000000	0.2142860000	0.0555560000	1	1	1
Fe	0.2000000000	0.3571430000	0.0555560000	1	1	1
Fe	0.2000000000	0.5000000000	0.0555560000	1	1	1
Fe	0.2000000000	0.6428580000	0.0555560000	1	1	1
Fe	0.2000000000	0.7857150000	0.0555560000	1	1	1
Fe	0.2000000000	0.9285720000	0.0555560000	1	1	1
Fe	0.3000000000	0.0714290000	0.0555560000	1	1	1
Fe	0.3000000000	0.2142860000	0.0555560000	1	1	1
Fe	0.3000000000	0.3571430000	0.0555560000	1	1	1
Fe	0.3000000000	0.5000000000	0.0555560000	1	1	1
Fe	0.3000000000	0.6428580000	0.0555560000	1	1	1
Fe	0.3000000000	0.7857150000	0.0555560000	1	1	1
Fe	0.3000000000	0.9285720000	0.0555560000	1	1	1
Fe	0.4000000000	0.0714290000	0.0555560000	1	1	1
Fe	0.4000000000	0.2142860000	0.0555560000	1	1	1
Fe	0.4000000000	0.3571430000	0.0555560000	1	1	1
Fe	0.4000000000	0.5000000000	0.0555560000	1	1	1
Fe	0.4000000000	0.6428580000	0.0555560000	1	1	1
Fe	0.4000000000	0.7857150000	0.0555560000	1	1	1
Fe	0.4000000000	0.9285720000	0.0555560000	1	1	1
Fe	0.5000000000	0.0714290000	0.0555560000	1	1	1
Fe	0.5000000000	0.2142860000	0.0555560000	1	1	1
Fe	0.5000000000	0.3571430000	0.0555560000	1	1	1
Fe	0.5000000000	0.5000000000	0.0555560000	1	1	1
Fe	0.5000000000	0.6428580000	0.0555560000	1	1	1
Fe	0.5000000000	0.7857150000	0.0555560000	1	1	1
Fe	0.5000000000	0.9285720000	0.0555560000	1	1	1
Fe	0.6000000000	0.0714290000	0.0555560000	1	1	1
Fe	0.6000000000	0.2142860000	0.0555560000	1	1	1
Fe	0.6000000000	0.3571430000	0.0555560000	1	1	1
Fe	0.6000000000	0.5000000000	0.0555560000	1	1	1
Fe	0.6000000000	0.6428580000	0.0555560000	1	1	1
Fe	0.6000000000	0.7857150000	0.0555560000	1	1	1
Fe	0.6000000000	0.9285720000	0.0555560000	1	1	1
Fe	0.7000000000	0.0714290000	0.0555560000	1	1	1
Fe	0.7000000000	0.2142860000	0.0555560000	1	1	1
Fe	0.7000000000	0.3571430000	0.0555560000	1	1	1
Fe	0.7000000000	0.5000000000	0.0555560000	1	1	1
Fe	0.7000000000	0.6428580000	0.0555560000	1	1	1
Fe	0.7000000000	0.7857150000	0.0555560000	1	1	1
Fe	0.7000000000	0.9285720000	0.0555560000	1	1	1
Fe	0.8000000000	0.0714290000	0.0555560000	1	1	1
Fe	0.8000000000	0.2142860000	0.0555560000	1	1	1
Fe	0.8000000000	0.3571430000	0.0555560000	1	1	1
Fe	0.8000000000	0.5000000000	0.0555560000	1	1	1
Fe	0.8000000000	0.6428580000	0.0555560000	1	1	1
Fe	0.8000000000	0.7857150000	0.0555560000	1	1	1
Fe	0.8000000000	0.9285720000	0.0555560000	1	1	1
Fe	0.9000000000	0.0714290000	0.0555560000	1	1	1
Fe	0.9000000000	0.2142860000	0.0555560000	1	1	1
Fe	0.9000000000	0.3571430000	0.0555560000	1	1	1
Fe	0.9000000000	0.5000000000	0.0555560000	1	1	1
Fe	0.9000000000	0.6428580000	0.0555560000	1	1	1
Fe	0.9000000000	0.7857150000	0.0555560000	1	1	1
Fe	0.9000000000	0.9285720000	0.0555560000	1	1	1
Fe	0.0000000000	0.0000000000	0.0000000000	0	0	0
Fe	0.0000000000	0.1428570000	0.0000000000	0	0	0
Fe	0.0000000000	0.2857140000	0.0000000000	0	0	0
Fe	0.0000000000	0.4285710000	0.0000000000	0	0	0
Fe	0.0000000000	0.5714290000	0.0000000000	0	0	0
Fe	0.0000000000	0.7142860000	0.0000000000	0	0	0
Fe	0.0000000000	0.8571430000	0.0000000000	0	0	0
Fe	0.1000000000	0.0000000000	0.0000000000	0	0	0
Fe	0.1000000000	0.1428570000	0.0000000000	0	0	0
Fe	0.1000000000	0.2857140000	0.0000000000	0	0	0
Fe	0.1000000000	0.4285710000	0.0000000000	0	0	0
Fe	0.1000000000	0.5714290000	0.0000000000	0	0	0
Fe	0.1000000000	0.7142860000	0.0000000000	0	0	0
Fe	0.1000000000	0.8571430000	0.0000000000	0	0	0
Fe	0.2000000000	0.0000000000	0.0000000000	0	0	0
Fe	0.2000000000	0.1428570000	0.0000000000	0	0	0
Fe	0.2000000000	0.2857140000	0.0000000000	0	0	0
Fe	0.2000000000	0.4285710000	0.0000000000	0	0	0
Fe	0.2000000000	0.5714290000	0.0000000000	0	0	0
Fe	0.2000000000	0.7142860000	0.0000000000	0	0	0
Fe	0.2000000000	0.8571430000	0.0000000000	0	0	0
Fe	0.3000000000	0.0000000000	0.0000000000	0	0	0
Fe	0.3000000000	0.1428570000	0.0000000000	0	0	0
Fe	0.3000000000	0.2857140000	0.0000000000	0	0	0
Fe	0.3000000000	0.4285710000	0.0000000000	0	0	0
Fe	0.3000000000	0.5714290000	0.0000000000	0	0	0
Fe	0.3000000000	0.7142860000	0.0000000000	0	0	0
Fe	0.3000000000	0.8571430000	0.0000000000	0	0	0
Fe	0.4000000000	0.0000000000	0.0000000000	0	0	0
Fe	0.4000000000	0.1428570000	0.0000000000	0	0	0
Fe	0.4000000000	0.2857140000	0.0000000000	0	0	0
Fe	0.4000000000	0.4285710000	0.0000000000	0	0	0
Fe	0.4000000000	0.5714290000	0.0000000000	0	0	0
Fe	0.4000000000	0.7142860000	0.0000000000	0	0	0
Fe	0.4000000000	0.8571430000	0.0000000000	0	0	0
Fe	0.5000000000	0.0000000000	0.0000000000	0	0	0
Fe	0.5000000000	0.1428570000	0.0000000000	0	0	0
Fe	0.5000000000	0.2857140000	0.0000000000	0	0	0
Fe	0.5000000000	0.4285710000	0.0000000000	0	0	0
Fe	0.5000000000	0.5714290000	0.0000000000	0	0	0
Fe	0.5000000000	0.7142860000	0.0000000000	0	0	0
Fe	0.5000000000	0.8571430000	0.0000000000	0	0	0
Fe	0.6000000000	0.0000000000	0.0000000000	0	0	0
Fe	0.6000000000	0.1428570000	0.0000000000	0	0	0
Fe	0.6000000000	0.2857140000	0.0000000000	0	0	0
Fe	0.6000000000	0.4285710000	0.0000000000	0	0	0
Fe	0.6000000000	0.5714290000	0.0000000000	0	0	0
Fe	0.6000000000	0.7142860000	0.0000000000	0	0	0
Fe	0.6000000000	0.8571430000	0.0000000000	0	0	0
Fe	0.7000000000	0.0000000000	0.0000000000	0	0	0
Fe	0.7000000000	0.1428570000	0.0000000000	0	0	0
Fe	0.7000000000	0.2857140000	0.0000000000	0	0	0
Fe	0.7000000000	0.4285710000	0.0000000000	0	0	0
Fe	0.7000000000	0.5714290000	0.0000000000	0	0	0
Fe	0.7000000000	0.7142860000	0.0000000000	0	0	0
Fe	0.7000000000	0.8571430000	0.0000000000	0	0	0
Fe	0.8000000000	0.0000000000	0.0000000000	0	0	0
Fe	0.8000000000	0.1428570000	0.0000000000	0	0	0
Fe	0.8000000000	0.2857140000	0.0000000000	0	0	0
Fe	0.8000000000	0.4285710000	0.0000000000	0	0	0
Fe	0.8000000000	0.5714290000	0.0000000000	0	0	0
Fe	0.8000000000	0.7142860000	0.0000000000	0	0	0
Fe	0.8000000000	0.8571430000	0.0000000000	0	0	0
Fe	0.9000000000	0.0000000000	0.0000000000	0	0	0
Fe	0.9000000000	0.1428570000	0.0000000000	0	0	0
Fe	0.9000000000	0.2857140000	0.0000000000	0	0	0
Fe	0.9000000000	0.4285710000	0.0000000000	0	0	0
Fe	0.9000000000	0.5714290000	0.0000000000	0	0	0
Fe	0.9000000000	0.7142860000	0.0000000000	0	0	0
Fe	0.9000000000	0.8571430000	0.0000000000	0	0	0
Fe	0.0500000000	0.0714290000	0.0000000000	0	0	0
Fe	0.0500000000	0.2142860000	0.0000000000	0	0	0
Fe	0.0500000000	0.3571430000	0.0000000000	0	0	0
Fe	0.0500000000	0.5000000000	0.0000000000	0	0	0
Fe	0.0500000000	0.6428580000	0.0000000000	0	0	0
Fe	0.0500000000	0.7857150000	0.0000000000	0	0	0
Fe	0.0500000000	0.9285720000	0.0000000000	0	0	0
Fe	0.1500000000	0.0714290000	0.0000000000	0	0	0
Fe	0.1500000000	0.2142860000	0.0000000000	0	0	0
Fe	0.1500000000	0.3571430000	0.0000000000	0	0	0
Fe	0.1500000000	0.5000000000	0.0000000000	0	0	0
Fe	0.1500000000	0.6428580000	0.0000000000	0	0	0
Fe	0.1500000000	0.7857150000	0.0000000000	0	0	0
Fe	0.1500000000	0.9285720000	0.0000000000	0	0	0
Fe	0.2500000000	0.0714290000	0.0000000000	0	0	0
Fe	0.2500000000	0.2142860000	0.0000000000	0	0	0
Fe	0.2500000000	0.3571430000	0.0000000000	0	0	0
Fe	0.2500000000	0.5000000000	0.0000000000	0	0	0
Fe	0.2500000000	0.6428580000	0.0000000000	0	0	0
Fe	0.2500000000	0.7857150000	0.0000000000	0	0	0
Fe	0.2500000000	0.9285720000	0.0000000000	0	0	0
Fe	0.3500000000	0.0714290000	0.0000000000	0	0	0
Fe	0.3500000000	0.2142860000	0.0000000000	0	0	0
Fe	0.3500000000	0.3571430000	0.0000000000	0	0	0
Fe	0.3500000000	0.5000000000	0.0000000000	0	0	0
Fe	0.3500000000	0.6428580000	0.0000000000	0	0	0
Fe	0.3500000000	0.7857150000	0.0000000000	0	0	0
Fe	0.3500000000	0.9285720000	0.0000000000	0	0	0
Fe	0.4500000000	0.0714290000	0.0000000000	0	0	0
Fe	0.4500000000	0.2142860000	0.0000000000	0	0	0
Fe	0.4500000000	0.3571430000	0.0000000000	0	0	0
Fe	0.4500000000	0.5000000000	0.0000000000	0	0	0
Fe	0.4500000000	0.6428580000	0.0000000000	0	0	0
Fe	0.4500000000	0.7857150000	0.0000000000	0	0	0
Fe	0.4500000000	0.9285720000	0.0000000000	0	0	0
Fe	0.5500000000	0.0714290000	0.0000000000	0	0	0
Fe	0.5500000000	0.2142860000	0.0000000000	0	0	0
Fe	0.5500000000	0.3571430000	0.0000000000	0	0	0
Fe	0.5500000000	0.5000000000	0.0000000000	0	0	0
Fe	0.5500000000	0.6428580000	0.0000000000	0	0	0
Fe	0.5500000000	0.7857150000	0.0000000000	0	0	0
Fe	0.5500000000	0.9285720000	0.0000000000	0	0	0
Fe	0.6500000000	0.0714290000	0.0000000000	0	0	0
Fe	0.6500000000	0.2142860000	0.0000000000	0	0	0
Fe	0.6500000000	0.3571430000	0.0000000000	0	0	0
Fe	0.6500000000	0.5000000000	0.0000000000	0	0	0
Fe	0.6500000000	0.6428580000	0.0000000000	0	0	0
Fe	0.6500000000	0.7857150000	0.0000000000	0	0	0
Fe	0.6500000000	0.9285720000	0.0000000000	0	0	0
Fe	0.7500000000	0.0714290000	0.0000000000	0	0	0
Fe	0.7500000000	0.2142860000	0.0000000000	0	0	0
Fe	0.7500000000	0.3571430000	0.0000000000	0	0	0
Fe	0.7500000000	0.5000000000	0.0000000000	0	0	0
Fe	0.7500000000	0.6428580000	0.0000000000	0	0	0
Fe	0.7500000000	0.7857150000	0.0000000000	0	0	0
Fe	0.7500000000	0.9285720000	0.0000000000	0	0	0
Fe	0.8500000000	0.0714290000	0.0000000000	0	0	0
Fe	0.8500000000	0.2142860000	0.0000000000	0	0	0
Fe	0.8500000000	0.3571430000	0.0000000000	0	0	0
Fe	0.8500000000	0.5000000000	0.0000000000	0	0	0
Fe	0.8500000000	0.6428580000	0.0000000000	0	0	0
Fe	0.8500000000	0.7857150000	0.0000000000	0	0	0
Fe	0.8500000000	0.9285720000	0.0000000000	0	0	0
Fe	0.9500000000	0.0714290000	0.0000000000	0	0	0
Fe	0.9500000000	0.2142860000	0.0000000000	0	0	0
Fe	0.9500000000	0.3571430000	0.0000000000	0	0	0
Fe	0.9500000000	0.5000000000	0.0000000000	0	0	0
Fe	0.9500000000	0.6428580000	0.0000000000	0	0	0
Fe	0.9500000000	0.7857150000	0.0000000000	0	0	0
Fe	0.9500000000	0.9285720000	0.0000000000	0	0	0
Fe	0.0500000000	0.0000000000	0.0555560000	1	1	1
Fe	0.0500000000	0.1428570000	0.0555560000	1	1	1
Fe	0.0500000000	0.2857140000	0.0555560000	1	1	1
Fe	0.0500000000	0.4285710000	0.0555560000	1	1	1
Fe	0.0500000000	0.5714290000	0.0555560000	1	1	1
Fe	0.0500000000	0.7142860000	0.0555560000	1	1	1
Fe	0.0500000000	0.8571430000	0.0555560000	1	1	1
Fe	0.1500000000	0.0000000000	0.0555560000	1	1	1
Fe	0.1500000000	0.1428570000	0.0555560000	1	1	1
Fe	0.1500000000	0.2857140000	0.0555560000	1	1	1
Fe	0.1500000000	0.4285710000	0.0555560000	1	1	1
Fe	0.1500000000	0.5714290000	0.0555560000	1	1	1
Fe	0.1500000000	0.7142860000	0.0555560000	1	1	1
Fe	0.1500000000	0.8571430000	0.0555560000	1	1	1
Fe	0.2500000000	0.0000000000	0.0555560000	1	1	1
Fe	0.2500000000	0.1428570000	0.0555560000	1	1	1
Fe	0.2500000000	0.2857140000	0.0555560000	1	1	1
Fe	0.2500000000	0.4285710000	0.0555560000	1	1	1
Fe	0.2500000000	0.5714290000	0.0555560000	1	1	1
Fe	0.2500000000	0.7142860000	0.0555560000	1	1	1
Fe	0.2500000000	0.8571430000	0.0555560000	1	1	1
Fe	0.3500000000	0.0000000000	0.0555560000	1	1	1
Fe	0.3500000000	0.1428570000	0.0555560000	1	1	1
Fe	0.3500000000	0.2857140000	0.0555560000	1	1	1
Fe	0.3500000000	0.4285710000	0.0555560000	1	1	1
Fe	0.3500000000	0.5714290000	0.0555560000	1	1	1
Fe	0.3500000000	0.7142860000	0.0555560000	1	1	1
Fe	0.3500000000	0.8571430000	0.0555560000	1	1	1
Fe	0.4500000000	0.0000000000	0.0555560000	1	1	1
Fe	0.4500000000	0.1428570000	0.0555560000	1	1	1
Fe	0.4500000000	0.2857140000	0.0555560000	1	1	1
Fe	0.4500000000	0.4285710000	0.0555560000	1	1	1
Fe	0.4500000000	0.5714290000	0.0555560000	1	1	1
Fe	0.4500000000	0.7142860000	0.0555560000	1	1	1
Fe	0.4500000000	0.8571430000	0.0555560000	1	1	1
Fe	0.5500000000	0.0000000000	0.0555560000	1	1	1
Fe	0.5500000000	0.1428570000	0.0555560000	1	1	1
Fe	0.5500000000	0.2857140000	0.0555560000	1	1	1
Fe	0.5500000000	0.4285710000	0.0555560000	1	1	1
Fe	0.5500000000	0.5714290000	0.0555560000	1	1	1
Fe	0.5500000000	0.7142860000	0.0555560000	1	1	1
Fe	0.5500000000	0.8571430000	0.0555560000	1	1	1
Fe	0.6500000000	0.0000000000	0.0555560000	1	1	1
Fe	0.6500000000	0.1428570000	0.0555560000	1	1	1
Fe	0.6500000000	0.2857140000	0.0555560000	1	1	1
Fe	0.6500000000	0.4285710000	0.0555560000	1	1	1
Fe	0.6500000000	0.5714290000	0.0555560000	1	1	1
Fe	0.6500000000	0.7142860000	0.0555560000	1	1	1
Fe	0.6500000000	0.8571430000	0.0555560000	1	1	1
Fe	0.7500000000	0.0000000000	0.0555560000	1	1	1
Fe	0.7500000000	0.1428570000	0.0555560000	1	1	1
Fe	0.7500000000	0.2857140000	0.0555560000	1	1	1
Fe	0.7500000000	0.4285710000	0.0555560000	1	1	1
Fe	0.7500000000	0.5714290000	0.0555560000	1	1	1
Fe	0.7500000000	0.7142860000	0.0555560000	1	1	1
Fe	0.7500000000	0.8571430000	0.0555560000	1	1	1
Fe	0.8500000000	0.0000000000	0.0555560000	1	1	1
Fe	0.8500000000	0.1428570000	0.0555560000	1	1	1
Fe	0.8500000000	0.2857140000	0.0555560000	1	1	1
Fe	0.8500000000	0.4285710000	0.0555560000	1	1	1
Fe	0.8500000000	0.5714290000	0.0555560000	1	1	1
Fe	0.8500000000	0.7142860000	0.0555560000	1	1	1
Fe	0.8500000000	0.8571430000	0.0555560000	1	1	1
Fe	0.9500000000	0.0000000000	0.0555560000	1	1	1
Fe	0.9500000000	0.1428570000	0.0555560000	1	1	1
Fe	0.9500000000	0.2857140000	0.0555560000	1	1	1
Fe	0.9500000000	0.4285710000	0.0555560000	1	1	1
Fe	0.9500000000	0.5714290000	0.0555560000	1	1	1
Fe	0.9500000000	0.7142860000	0.0555560000	1	1	1
Fe	0.9500000000	0.8571430000	0.0555560000	1	1	1
Fe	0.0000000000	0.0714290000	0.1666670000	1	1	1
Fe	0.0000000000	0.2142860000	0.1666670000	1	1	1
Fe	0.0000000000	0.3571430000	0.1666670000	1	1	1
Fe	0.0000000000	0.5000000000	0.1666670000	1	1	1
Fe	0.0000000000	0.6428580000	0.1666670000	1	1	1
Fe	0.0000000000	0.7857150000	0.1666670000	1	1	1
Fe	0.0000000000	0.9285720000	0.1666670000	1	1	1
Fe	0.1000000000	0.0714290000	0.1666670000	1	1	1
Fe	0.1000000000	0.2142860000	0.1666670000	1	1	1
Fe	0.1000000000	0.3571430000	0.1666670000	1	1	1
Fe	0.1000000000	0.5000000000	0.1666670000	1	1	1
Fe	0.1000000000	0.6428580000	0.1666670000	1	1	1
Fe	0.1000000000	0.7857150000	0.1666670000	1	1	1
Fe	0.1000000000	0.9285720000	0.1666670000	1	1	1
Fe	0.2000000000	0.0714290000	0.1666670000	1	1	1
Fe	0.2000000000	0.2142860000	0.1666670000	1	1	1
Fe	0.2000000000	0.3571430000	0.1666670000	1	1	1
Fe	0.2000000000	0.5000000000	0.1666670000	1	1	1
Fe	0.2000000000	0.6428580000	0.1666670000	1	1	1
Fe	0.2000000000	0.7857150000	0.1666670000	1	1	1
Fe	0.2000000000	0.9285720000	0.1666670000	1	1	1
Fe	0.3000000000	0.0714290000	0.1666670000	1	1	1
Fe	0.3000000000	0.2142860000	0.1666670000	1	1	1
Fe	0.3000000000	0.3571430000	0.1666670000	1	1	1
Fe	0.3000000000	0.5000000000	0.1666670000	1	1	1
Fe	0.3000000000	0.6428580000	0.1666670000	1	1	1
Fe	0.3000000000	0.7857150000	0.1666670000	1	1	1
Fe	0.3000000000	0.9285720000	0.1666670000	1	1	1
Fe	0.4000000000	0.0714290000	0.1666670000	1	1	1
Fe	0.4000000000	0.2142860000	0.1666670000	1	1	1
Fe	0.4000000000	0.3571430000	0.1666670000	1	1	1
Fe	0.4000000000	0.5000000000	0.1666670000	1	1	1
Fe	0.4000000000	0.6428580000	0.1666670000	1	1	1
Fe	0.4000000000	0.7857150000	0.1666670000	1	1	1
Fe	0.4000000000	0.9285720000	0.1666670000	1	1	1
Fe	0.5000000000	0.0714290000	0.1666670000	1	1	1
Fe	0.5000000000	0.2142860000	0.1666670000	1	1	1
Fe	0.5000000000	0.3571430000	0.1666670000	1	1	1
Fe	0.5000000000	0.5000000000	0.1666670000	1	1	1
Fe	0.5000000000	0.6428580000	0.1666670000	1	1	1
Fe	0.5000000000	0.7857150000	0.1666670000	1	1	1
Fe	0.5000000000	0.9285720000	0.1666670000	1	1	1
Fe	0.6000000000	0.0714290000	0.1666670000	1	1	1
Fe	0.6000000000	0.2142860000	0.1666670000	1	1	1
Fe	0.6000000000	0.3571430000	0.1666670000	1	1	1
Fe	0.6000000000	0.5000000000	0.1666670000	1	1	1
Fe	0.6000000000	0.6428580000	0.1666670000	1	1	1
Fe	0.6000000000	0.7857150000	0.1666670000	1	1	1
Fe	0.6000000000	0.9285720000	0.1666670000	1	1	1
Fe	0.7000000000	0.0714290000	0.1666670000	1	1	1
Fe	0.7000000000	0.2142860000	0.1666670000	1	1	1
Fe	0.7000000000	0.3571430000	0.1666670000	1	1	1
Fe	0.7000000000	0.5000000000	0.1666670000	1	1	1
Fe	0.7000000000	0.6428580000	0.1666670000	1	1	1
Fe	0.7000000000	0.7857150000	0.1666670000	1	1	1
Fe	0.7000000000	0.9285720000	0.1666670000	1	1	1
Fe	0.8000000000	0.0714290000	0.1666670000	1	1	1
Fe	0.8000000000	0.2142860000	0.1666670000	1	1	1
Fe	0.8000000000	0.3571430000	0.1666670000	1	1	1
Fe	0.8000000000	0.5000000000	0.1666670000	1	1	1
Fe	0.8000000000	0.6428580000	0.1666670000	1	1	1
Fe	0.8000000000	0.7857150000	0.1666670000	1	1	1
Fe	0.8000000000	0.9285720000	0.1666670000	1	1	1
Fe	0.9000000000	0.0714290000	0.1666670000	1	1	1
Fe	0.9000000000	0.2142860000	0.1666670000	1	1	1
Fe	0.9000000000	0.3571430000	0.1666670000	1	1	1
Fe	0.9000000000	0.5000000000	0.1666670000	1	1	1
Fe	0.9000000000	0.6428580000	0.1666670000	1	1	1
Fe	0.9000000000	0.7857150000	0.1666670000	1	1	1
Fe	0.9000000000	0.9285720000	0.1666670000	1	1	1
Fe	0.0000000000	0.0000000000	0.1111110000	1	1	1
Fe	0.0000000000	0.1428570000	0.1111110000	1	1	1
Fe	0.0000000000	0.2857140000	0.1111110000	1	1	1
Fe	0.0000000000	0.4285710000	0.1111110000	1	1	1
Fe	0.0000000000	0.5714290000	0.1111110000	1	1	1
Fe	0.0000000000	0.7142860000	0.1111110000	1	1	1
Fe	0.0000000000	0.8571430000	0.1111110000	1	1	1
Fe	0.1000000000	0.0000000000	0.1111110000	1	1	1
Fe	0.1000000000	0.1428570000	0.1111110000	1	1	1
Fe	0.1000000000	0.2857140000	0.1111110000	1	1	1
Fe	0.1000000000	0.4285710000	0.1111110000	1	1	1
Fe	0.1000000000	0.5714290000	0.1111110000	1	1	1
Fe	0.1000000000	0.7142860000	0.1111110000	1	1	1
Fe	0.1000000000	0.8571430000	0.1111110000	1	1	1
Fe	0.2000000000	0.0000000000	0.1111110000	1	1	1
Fe	0.2000000000	0.1428570000	0.1111110000	1	1	1
Fe	0.2000000000	0.2857140000	0.1111110000	1	1	1
Fe	0.2000000000	0.4285710000	0.1111110000	1	1	1
Fe	0.2000000000	0.5714290000	0.1111110000	1	1	1
Fe	0.2000000000	0.7142860000	0.1111110000	1	1	1
Fe	0.2000000000	0.8571430000	0.1111110000	1	1	1
Fe	0.3000000000	0.0000000000	0.1111110000	1	1	1
Fe	0.3000000000	0.1428570000	0.1111110000	1	1	1
Fe	0.3000000000	0.2857140000	0.1111110000	1	1	1
Fe	0.3000000000	0.4285710000	0.1111110000	1	1	1
Fe	0.3000000000	0.5714290000	0.1111110000	1	1	1
Fe	0.3000000000	0.7142860000	0.1111110000	1	1	1
Fe	0.3000000000	0.8571430000	0.1111110000	1	1	1
Fe	0.4000000000	0.0000000000	0.1111110000	1	1	1
Fe	0.4000000000	0.1428570000	0.1111110000	1	1	1
Fe	0.4000000000	0.2857140000	0.1111110000	1	1	1
Fe	0.4000000000	0.4285710000	0.1111110000	1	1	1
Fe	0.4000000000	0.5714290000	0.1111110000	1	1	1
Fe	0.4000000000	0.7142860000	0.1111110000	1	1	1
Fe	0.4000000000	0.8571430000	0.1111110000	1	1	1
Fe	0.5000000000	0.0000000000	0.1111110000	1	1	1
Fe	0.5000000000	0.1428570000	0.1111110000	1	1	1
Fe	0.5000000000	0.2857140000	0.1111110000	1	1	1
Fe	0.5000000000	0.4285710000	0.1111110000	1	1	1
Fe	0.5000000000	0.5714290000	0.1111110000	1	1	1
Fe	0.5000000000	0.7142860000	0.1111110000	1	1	1
Fe	0.5000000000	0.8571430000	0.1111110000	1	1	1
Fe	0.6000000000	0.0000000000	0.1111110000	1	1	1
Fe	0.6000000000	0.1428570000	0.1111110000	1	1	1
Fe	0.6000000000	0.2857140000	0.1111110000	1	1	1
Fe	0.6000000000	0.4285710000	0.1111110000	1	1	1
Fe	0.6000000000	0.5714290000	0.1111110000	1	1	1
Fe	0.6000000000	0.7142860000	0.1111110000	1	1	1
Fe	0.6000000000	0.8571430000	0.1111110000	1	1	1
Fe	0.7000000000	0.0000000000	0.1111110000	1	1	1
Fe	0.7000000000	0.1428570000	0.1111110000	1	1	1
Fe	0.7000000000	0.2857140000	0.1111110000	1	1	1
Fe	0.7000000000	0.4285710000	0.1111110000	1	1	1
Fe	0.7000000000	0.5714290000	0.1111110000	1	1	1
Fe	0.7000000000	0.7142860000	0.1111110000	1	1	1
Fe	0.7000000000	0.8571430000	0.1111110000	1	1	1
Fe	0.8000000000	0.0000000000	0.1111110000	1	1	1
Fe	0.8000000000	0.1428570000	0.1111110000	1	1	1
Fe	0.8000000000	0.2857140000	0.1111110000	1	1	1
Fe	0.8000000000	0.4285710000	0.1111110000	1	1	1
Fe	0.8000000000	0.5714290000	0.1111110000	1	1	1
Fe	0.8000000000	0.7142860000	0.1111110000	1	1	1
Fe	0.8000000000	0.8571430000	0.1111110000	1	1	1
Fe	0.9000000000	0.0000000000	0.1111110000	1	1	1
Fe	0.9000000000	0.1428570000	0.1111110000	1	1	1
Fe	0.9000000000	0.2857140000	0.1111110000	1	1	1
Fe	0.9000000000	0.4285710000	0.1111110000	1	1	1
Fe	0.9000000000	0.5714290000	0.1111110000	1	1	1
Fe	0.9000000000	0.7142860000	0.1111110000	1	1	1
Fe	0.9000000000	0.8571430000	0.1111110000	1	1	1
Fe	0.0500000000	0.0714290000	0.1111110000	1	1	1
Fe	0.0500000000	0.2142860000	0.1111110000	1	1	1
Fe	0.0500000000	0.3571430000	0.1111110000	1	1	1
Fe	0.0500000000	0.5000000000	0.1111110000	1	1	1
Fe	0.0500000000	0.6428580000	0.1111110000	1	1	1
Fe	0.0500000000	0.7857150000	0.1111110000	1	1	1
Fe	0.0500000000	0.9285720000	0.1111110000	1	1	1
Fe	0.1500000000	0.0714290000	0.1111110000	1	1	1
Fe	0.1500000000	0.2142860000	0.1111110000	1	1	1
Fe	0.1500000000	0.3571430000	0.1111110000	1	1	1
Fe	0.1500000000	0.5000000000	0.1111110000	1	1	1
Fe	0.1500000000	0.6428580000	0.1111110000	1	1	1
Fe	0.1500000000	0.7857150000	0.1111110000	1	1	1
Fe	0.1500000000	0.9285720000	0.1111110000	1	1	1
Fe	0.2500000000	0.0714290000	0.1111110000	1	1	1
Fe	0.2500000000	0.2142860000	0.1111110000	1	1	1
Fe	0.2500000000	0.3571430000	0.1111110000	1	1	1
Fe	0.2500000000	0.5000000000	0.1111110000	1	1	1
Fe	0.2500000000	0.6428580000	0.1111110000	1	1	1
Fe	0.2500000000	0.7857150000	0.1111110000	1	1	1
Fe	0.2500000000	0.9285720000	0.1111110000	1	1	1
Fe	0.3500000000	0.0714290000	0.1111110000	1	1	1
Fe	0.3500000000	0.2142860000	0.1111110000	1	1	1
Fe	0.3500000000	0.3571430000	0.1111110000	1	1	1
Fe	0.3500000000	0.5000000000	0.1111110000	1	1	1
Fe	0.3500000000	0.6428580000	0.1111110000	1	1	1
Fe	0.3500000000	0.7857150000	0.1111110000	1	1	1
Fe	0.3500000000	0.9285720000	0.1111110000	1	1	1
Fe	0.4500000000	0.0714290000	0.1111110000	1	1	1
Fe	0.4500000000	0.2142860000	0.1111110000	1	1	1
Fe	0.4500000000	0.3571430000	0.1111110000	1	1	1
Fe	0.4500000000	0.5000000000	0.1111110000	1	1	1
Fe	0.4500000000	0.6428580000	0.1111110000	1	1	1
Fe	0.4500000000	0.7857150000	0.1111110000	1	1	1
Fe	0.4500000000	0.9285720000	0.1111110000	1	1	1
Fe	0.5500000000	0.0714290000	0.1111110000	1	1	1
Fe	0.5500000000	0.2142860000	0.1111110000	1	1	1
Fe	0.5500000000	0.3571430000	0.1111110000	1	1	1
Fe	0.5500000000	0.5000000000	0.1111110000	1	1	1
Fe	0.5500000000	0.6428580000	0.1111110000	1	1	1
Fe	0.5500000000	0.7857150000	0.1111110000	1	1	1
Fe	0.5500000000	0.9285720000	0.1111110000	1	1	1
Fe	0.6500000000	0.0714290000	0.1111110000	1	1	1
Fe	0.6500000000	0.2142860000	0.1111110000	1	1	1
Fe	0.6500000000	0.3571430000	0.1111110000	1	1	1
Fe	0.6500000000	0.5000000000	0.1111110000	1	1	1
Fe	0.6500000000	0.6428580000	0.1111110000	1	1	1
Fe	0.6500000000	0.7857150000	0.1111110000	1	1	1
Fe	0.6500000000	0.9285720000	0.1111110000	1	1	1
Fe	0.7500000000	0.0714290000	0.1111110000	1	1	1
Fe	0.7500000000	0.2142860000	0.1111110000	1	1	1
Fe	0.7500000000	0.3571430000	0.1111110000	1	1	1
Fe	0.7500000000	0.5000000000	0.1111110000	1	1	1
Fe	0.7500000000	0.6428580000	0.1111110000	1	1	1
Fe	0.7500000000	0.7857150000	0.1111110000	1	1	1
Fe	0.7500000000	0.9285720000	0.1111110000	1	1	1
Fe	0.8500000000	0.0714290000	0.1111110000	1	1	1
Fe	0.8500000000	0.2142860000	0.1111110000	1	1	1
Fe	0.8500000000	0.3571430000	0.1111110000	1	1	1
Fe	0.8500000000	0.5000000000	0.1111110000	1	1	1
Fe	0.8500000000	0.6428580000	0.1111110000	1	1	1
Fe	0.8500000000	0.7857150000	0.1111110000	1	1	1
Fe	0.8500000000	0.9285720000	0.1111110000	1	1	1
Fe	0.9500000000	0.0714290000	0.1111110000	1	1	1
Fe	0.9500000000	0.2142860000	0.1111110000	1	1	1
Fe	0.9500000000	0.3571430000	0.1111110000	1	1	1
Fe	0.9500000000	0.5000000000	0.1111110000	1	1	1
Fe	0.9500000000	0.6428580000	0.1111110000	1	1	1
Fe	0.9500000000	0.7857150000	0.1111110000	1	1	1
Fe	0.9500000000	0.9285720000	0.1111110000	1	1	1
Fe	0.0500000000	0.0000000000	0.1666670000	1	1	1
Fe	0.0500000000	0.1428570000	0.1666670000	1	1	1
Fe	0.0500000000	0.2857140000	0.1666670000	1	1	1
Fe	0.0500000000	0.4285710000	0.1666670000	1	1	1
Fe	0.0500000000	0.5714290000	0.1666670000	1	1	1
Fe	0.0500000000	0.7142860000	0.1666670000	1	1	1
Fe	0.0500000000	0.8571430000	0.1666670000	1	1	1
Fe	0.1500000000	0.0000000000	0.1666670000	1	1	1
Fe	0.1500000000	0.1428570000	0.1666670000	1	1	1
Fe	0.1500000000	0.2857140000	0.1666670000	1	1	1
Fe	0.1500000000	0.4285710000	0.1666670000	1	1	1
Fe	0.1500000000	0.5714290000	0.1666670000	1	1	1
Fe	0.1500000000	0.7142860000	0.1666670000	1	1	1
Fe	0.1500000000	0.8571430000	0.1666670000	1	1	1
Fe	0.2500000000	0.0000000000	0.1666670000	1	1	1
Fe	0.2500000000	0.1428570000	0.1666670000	1	1	1
Fe	0.2500000000	0.2857140000	0.1666670000	1	1	1
Fe	0.2500000000	0.4285710000	0.1666670000	1	1	1
Fe	0.2500000000	0.5714290000	0.1666670000	1	1	1
Fe	0.2500000000	0.7142860000	0.1666670000	1	1	1
Fe	0.2500000000	0.8571430000	0.1666670000	1	1	1
Fe	0.3500000000	0.0000000000	0.1666670000	1	1	1
Fe	0.3500000000	0.1428570000	0.1666670000	1	1	1
Fe	0.3500000000	0.2857140000	0.1666670000	1	1	1
Fe	0.3500000000	0.4285710000	0.1666670000	1	1	1
Fe	0.3500000000	0.5714290000	0.1666670000	1	1	1
Fe	0.3500000000	0.7142860000	0.1666670000	1	1	1
Fe	0.3500000000	0.8571430000	0.1666670000	1	1	1
Fe	0.4500000000	0.0000000000	0.1666670000	1	1	1
Fe	0.4500000000	0.1428570000	0.1666670000	1	1	1
Fe	0.4500000000	0.2857140000	0.1666670000	1	1	1
Fe	0.4500000000	0.4285710000	0.1666670000	1	1	1
Fe	0.4500000000	0.5714290000	0.1666670000	1	1	1
Fe	0.4500000000	0.7142860000	0.1666670000	1	1	1
Fe	0.4500000000	0.8571430000	0.1666670000	1	1	1
Fe	0.5500000000	0.0000000000	0.1666670000	1	1	1
Fe	0.5500000000	0.1428570000	0.1666670000	1	1	1
Fe	0.5500000000	0.2857140000	0.1666670000	1	1	1
Fe	0.5500000000	0.4285710000	0.1666670000	1	1	1
Fe	0.5500000000	0.5714290000	0.1666670000	1	1	1
Fe	0.5500000000	0.7142860000	0.1666670000	1	1	1
Fe	0.5500000000	0.8571430000	0.1666670000	1	1	1
Fe	0.6500000000	0.0000000000	0.1666670000	1	1	1
Fe	0.6500000000	0.1428570000	0.1666670000	1	1	1
Fe	0.6500000000	0.2857140000	0.1666670000	1	1	1
Fe	0.6500000000	0.4285710000	0.1666670000	1	1	1
Fe	0.6500000000	0.5714290000	0.1666670000	1	1	1
Fe	0.6500000000	0.7142860000	0.1666670000	1	1	1
Fe	0.6500000000	0.8571430000	0.1666670000	1	1	1
Fe	0.7500000000	0.0000000000	0.1666670000	1	1	1
Fe	0.7500000000	0.1428570000	0.1666670000	1	1	1
Fe	0.7500000000	0.2857140000	0.1666670000	1	1	1
Fe	0.7500000000	0.4285710000	0.1666670000	1	1	1
Fe	0.7500000000	0.5714290000	0.1666670000	1	1	1
Fe	0.7500000000	0.7142860000	0.1666670000	1	1	1
Fe	0.7500000000	0.8571430000	0.1666670000	1	1	1
Fe	0.8500000000	0.0000000000	0.1666670000	1	1	1
Fe	0.8500000000	0.1428570000	0.1666670000	1	1	1
Fe	0.8500000000	0.2857140000	0.1666670000	1	1	1
Fe	0.8500000000	0.4285710000	0.1666670000	1	1	1
Fe	0.8500000000	0.5714290000	0.1666670000	1	1	1
Fe	0.8500000000	0.7142860000	0.1666670000	1	1	1
Fe	0.8500000000	0.8571430000	0.1666670000	1	1	1
Fe	0.9500000000	0.0000000000	0.1666670000	1	1	1
Fe	0.9500000000	0.1428570000	0.1666670000	1	1	1
Fe	0.9500000000	0.2857140000	0.1666670000	1	1	1
Fe	0.9500000000	0.4285710000	0.1666670000	1	1	1
Fe	0.9500000000	0.5714290000	0.1666670000	1	1	1
Fe	0.9500000000	0.7142860000	0.1666670000	1	1	1
Fe	0.9500000000	0.8571430000	0.1666670000	1	1	1
O	0.5000000000	0.5000000000	0.2709100000	1	1	1
H	0.5000000000	0.5266500000	0.2870700000	1	1	1
H	0.5000000000	0.4733500000	0.2870700000	1	1	1
K_POINTS automatic
2 2 1 0 0 0
CELL_PARAMETERS angstrom
     28.6303540000       0.0000000000       0.0000000000
      0.0000000000      28.3426060000       0.0000000000
      0.0000000000       0.0000000000      36.4404950000
