&CONTROL
  calculation = 'relax'
  etot_conv_thr =   5.1000000000d-04
  forc_conv_thr =   1.0000000000d-04
  outdir = './out/'
  prefix = 'aiida'
  pseudo_dir = './pseudo/'
  tprnfor = .true.
  tstress = .true.
  verbosity = 'high'
/
&SYSTEM
  degauss =   1.4699723600d-02
  ecutrho =   4.8000000000d+02
  ecutwfc =   6.0000000000d+01
  ibrav = 0
  nat = 51
  nosym = .false.
  nspin = 2
  ntyp = 4
  occupations = 'smearing'
  smearing = 'cold'
  starting_magnetization(1) =   1.0000000000d-01
  starting_magnetization(2) =   1.0000000000d-01
  starting_magnetization(3) =   1.0000000000d-01
  starting_magnetization(4) =   1.0000000000d-01
  input_dft = 'rvv10'
/
&ELECTRONS
  conv_thr =   1.0200000000d-08
  electron_maxstep = 80
  mixing_beta =   4.0000000000d-01
/
ATOMIC_SPECIES
C      12.0107 C.pbesol-n-kjpaw_psl.1.0.0.UPF
H      1.00794 H.pbesol-rrkjus_psl.1.0.0.UPF
N      14.0067 N.pbesol-theos.UPF
O      15.9994 O.pbesol-n-kjpaw_psl.0.1.UPF
ATOMIC_POSITIONS crystal
O            0.5583040000       0.5344210000       0.5404870000 
C            0.5940060000       0.6209710000       0.4675790000 
C            0.6340210000       0.5910710000       0.4520570000 
C            0.6257290000       0.5421030000       0.4704530000 
N            0.5742250000       0.5377370000       0.4723640000 
C            0.5561800000       0.5843830000       0.4660090000 
C            0.3984270000       0.4375310000       0.4614270000 
C            0.3509530000       0.4423190000       0.4816050000 
C            0.3410500000       0.4947270000       0.4847460000 
C            0.3778370000       0.5216520000       0.5067010000 
C            0.4239120000       0.5135910000       0.4889750000 
N            0.4333850000       0.4648770000       0.4799790000 
C            0.5541360000       0.5126740000       0.5038940000 
H            0.6398340000       0.5453120000       0.4999720000 
C            0.5696670000       0.4627190000       0.5067020000 
C            0.5563280000       0.4343150000       0.4705080000 
C            0.4758610000       0.4672040000       0.4576010000 
O            0.4764450000       0.4951740000       0.4222510000 
C            0.5045480000       0.4243320000       0.4568570000 
C            0.5081850000       0.3977640000       0.4193700000 
C            0.5489980000       0.4350720000       0.5403760000 
C            0.5790600000       0.4332230000       0.5760860000 
H            0.6071790000       0.6340670000       0.4938230000 
H            0.5867910000       0.6485900000       0.4481870000 
H            0.6335620000       0.5921480000       0.4227390000 
H            0.6665500000       0.6050890000       0.4599870000 
H            0.6461460000       0.5205030000       0.4535060000 
H            0.5399280000       0.5848700000       0.4387660000 
H            0.5292430000       0.5902900000       0.4874320000 
H            0.4123620000       0.4029480000       0.4639530000 
H            0.3922260000       0.4447380000       0.4325060000 
H            0.3562880000       0.4284090000       0.5100510000 
H            0.3225780000       0.4242870000       0.4651880000 
H            0.3087360000       0.4997030000       0.4985930000 
H            0.3408230000       0.5095110000       0.4572760000 
H            0.3767200000       0.5110700000       0.5364810000 
H            0.3717200000       0.5597470000       0.5007390000 
H            0.4507430000       0.5232500000       0.5087660000 
H            0.4299220000       0.5387600000       0.4659680000 
H            0.6076330000       0.4587350000       0.5071700000 
H            0.5731010000       0.3986100000       0.4727080000 
H            0.5770020000       0.4481610000       0.4481040000 
H            0.4906980000       0.3982480000       0.4761760000 
H            0.5162030000       0.3606420000       0.4228980000 
H            0.4770640000       0.4049140000       0.4033230000 
H            0.5364670000       0.4155650000       0.4045180000 
H            0.5413490000       0.3974480000       0.5359750000 
H            0.5144050000       0.4466580000       0.5480400000 
H            0.5829990000       0.4683050000       0.5877070000 
H            0.6139060000       0.4186680000       0.5705830000 
H            0.5628060000       0.4136250000       0.5985430000 
K_POINTS automatic
2 2 1 0 0 0
CELL_PARAMETERS angstrom
     28.6303540000       0.0000000000       0.0000000000
      0.0000000000      28.3426060000       0.0000000000
      0.0000000000       0.0000000000      36.4404950000
