&CONTROL
  calculation = 'relax'
  etot_conv_thr =   6.1100000000d-03
  forc_conv_thr =   1.0000000000d-04
  outdir = './out/'
  prefix = 'aiida'
  pseudo_dir = './pseudo/'
  tprnfor = .true.
  tstress = .true.
  verbosity = 'high'
/
&SYSTEM
  degauss =   1.4699723600d-02
  ecutrho =   1.0800000000d+03
  ecutwfc =   9.0000000000d+01
  ibrav = 0
  nat = 611
  nosym = .false.
  nspin = 2
  ntyp = 5
  occupations = 'smearing'
  smearing = 'cold'
  starting_magnetization(1) =   1.0000000000d-01
  starting_magnetization(2) =   3.1250000000d-01
  starting_magnetization(3) =   1.0000000000d-01
  starting_magnetization(4) =   1.0000000000d-01
  starting_magnetization(5) =   1.0000000000d-01
  input_dft = 'rvv10'
/
&ELECTRONS
  conv_thr =   1.2220000000d-07
  electron_maxstep = 80
  mixing_beta =   4.0000000000d-01
/
ATOMIC_SPECIES
C      12.0107 C.pbesol-n-kjpaw_psl.1.0.0.UPF
Fe     55.845 Fe.pbesol-spn-kjpaw_psl.0.2.1.UPF
H      1.00794 H.pbesol-rrkjus_psl.1.0.0.UPF
N      14.0067 N.pbesol-theos.UPF
O      15.9994 O.pbesol-n-kjpaw_psl.0.1.UPF
ATOMIC_POSITIONS crystal
Fe	0.0000000000	0.0714290000	0.0555560000	1	1	1
Fe	0.0000000000	0.2142860000	0.0555560000	1	1	1
Fe	0.0000000000	0.3571430000	0.0555560000	1	1	1
Fe	0.0000000000	0.5000000000	0.0555560000	1	1	1
Fe	0.0000000000	0.6428580000	0.0555560000	1	1	1
Fe	0.0000000000	0.7857150000	0.0555560000	1	1	1
Fe	0.0000000000	0.9285720000	0.0555560000	1	1	1
Fe	0.1000000000	0.0714290000	0.0555560000	1	1	1
Fe	0.1000000000	0.2142860000	0.0555560000	1	1	1
Fe	0.1000000000	0.3571430000	0.0555560000	1	1	1
Fe	0.1000000000	0.5000000000	0.0555560000	1	1	1
Fe	0.1000000000	0.6428580000	0.0555560000	1	1	1
Fe	0.1000000000	0.7857150000	0.0555560000	1	1	1
Fe	0.1000000000	0.9285720000	0.0555560000	1	1	1
Fe	0.2000000000	0.0714290000	0.0555560000	1	1	1
Fe	0.2000000000	0.2142860000	0.0555560000	1	1	1
Fe	0.2000000000	0.3571430000	0.0555560000	1	1	1
Fe	0.2000000000	0.5000000000	0.0555560000	1	1	1
Fe	0.2000000000	0.6428580000	0.0555560000	1	1	1
Fe	0.2000000000	0.7857150000	0.0555560000	1	1	1
Fe	0.2000000000	0.9285720000	0.0555560000	1	1	1
Fe	0.3000000000	0.0714290000	0.0555560000	1	1	1
Fe	0.3000000000	0.2142860000	0.0555560000	1	1	1
Fe	0.3000000000	0.3571430000	0.0555560000	1	1	1
Fe	0.3000000000	0.5000000000	0.0555560000	1	1	1
Fe	0.3000000000	0.6428580000	0.0555560000	1	1	1
Fe	0.3000000000	0.7857150000	0.0555560000	1	1	1
Fe	0.3000000000	0.9285720000	0.0555560000	1	1	1
Fe	0.4000000000	0.0714290000	0.0555560000	1	1	1
Fe	0.4000000000	0.2142860000	0.0555560000	1	1	1
Fe	0.4000000000	0.3571430000	0.0555560000	1	1	1
Fe	0.4000000000	0.5000000000	0.0555560000	1	1	1
Fe	0.4000000000	0.6428580000	0.0555560000	1	1	1
Fe	0.4000000000	0.7857150000	0.0555560000	1	1	1
Fe	0.4000000000	0.9285720000	0.0555560000	1	1	1
Fe	0.5000000000	0.0714290000	0.0555560000	1	1	1
Fe	0.5000000000	0.2142860000	0.0555560000	1	1	1
Fe	0.5000000000	0.3571430000	0.0555560000	1	1	1
Fe	0.5000000000	0.5000000000	0.0555560000	1	1	1
Fe	0.5000000000	0.6428580000	0.0555560000	1	1	1
Fe	0.5000000000	0.7857150000	0.0555560000	1	1	1
Fe	0.5000000000	0.9285720000	0.0555560000	1	1	1
Fe	0.6000000000	0.0714290000	0.0555560000	1	1	1
Fe	0.6000000000	0.2142860000	0.0555560000	1	1	1
Fe	0.6000000000	0.3571430000	0.0555560000	1	1	1
Fe	0.6000000000	0.5000000000	0.0555560000	1	1	1
Fe	0.6000000000	0.6428580000	0.0555560000	1	1	1
Fe	0.6000000000	0.7857150000	0.0555560000	1	1	1
Fe	0.6000000000	0.9285720000	0.0555560000	1	1	1
Fe	0.7000000000	0.0714290000	0.0555560000	1	1	1
Fe	0.7000000000	0.2142860000	0.0555560000	1	1	1
Fe	0.7000000000	0.3571430000	0.0555560000	1	1	1
Fe	0.7000000000	0.5000000000	0.0555560000	1	1	1
Fe	0.7000000000	0.6428580000	0.0555560000	1	1	1
Fe	0.7000000000	0.7857150000	0.0555560000	1	1	1
Fe	0.7000000000	0.9285720000	0.0555560000	1	1	1
Fe	0.8000000000	0.0714290000	0.0555560000	1	1	1
Fe	0.8000000000	0.2142860000	0.0555560000	1	1	1
Fe	0.8000000000	0.3571430000	0.0555560000	1	1	1
Fe	0.8000000000	0.5000000000	0.0555560000	1	1	1
Fe	0.8000000000	0.6428580000	0.0555560000	1	1	1
Fe	0.8000000000	0.7857150000	0.0555560000	1	1	1
Fe	0.8000000000	0.9285720000	0.0555560000	1	1	1
Fe	0.9000000000	0.0714290000	0.0555560000	1	1	1
Fe	0.9000000000	0.2142860000	0.0555560000	1	1	1
Fe	0.9000000000	0.3571430000	0.0555560000	1	1	1
Fe	0.9000000000	0.5000000000	0.0555560000	1	1	1
Fe	0.9000000000	0.6428580000	0.0555560000	1	1	1
Fe	0.9000000000	0.7857150000	0.0555560000	1	1	1
Fe	0.9000000000	0.9285720000	0.0555560000	1	1	1
Fe	0.0000000000	0.0000000000	0.0000000000	0	0	0
Fe	0.0000000000	0.1428570000	0.0000000000	0	0	0
Fe	0.0000000000	0.2857140000	0.0000000000	0	0	0
Fe	0.0000000000	0.4285710000	0.0000000000	0	0	0
Fe	0.0000000000	0.5714290000	0.0000000000	0	0	0
Fe	0.0000000000	0.7142860000	0.0000000000	0	0	0
Fe	0.0000000000	0.8571430000	0.0000000000	0	0	0
Fe	0.1000000000	0.0000000000	0.0000000000	0	0	0
Fe	0.1000000000	0.1428570000	0.0000000000	0	0	0
Fe	0.1000000000	0.2857140000	0.0000000000	0	0	0
Fe	0.1000000000	0.4285710000	0.0000000000	0	0	0
Fe	0.1000000000	0.5714290000	0.0000000000	0	0	0
Fe	0.1000000000	0.7142860000	0.0000000000	0	0	0
Fe	0.1000000000	0.8571430000	0.0000000000	0	0	0
Fe	0.2000000000	0.0000000000	0.0000000000	0	0	0
Fe	0.2000000000	0.1428570000	0.0000000000	0	0	0
Fe	0.2000000000	0.2857140000	0.0000000000	0	0	0
Fe	0.2000000000	0.4285710000	0.0000000000	0	0	0
Fe	0.2000000000	0.5714290000	0.0000000000	0	0	0
Fe	0.2000000000	0.7142860000	0.0000000000	0	0	0
Fe	0.2000000000	0.8571430000	0.0000000000	0	0	0
Fe	0.3000000000	0.0000000000	0.0000000000	0	0	0
Fe	0.3000000000	0.1428570000	0.0000000000	0	0	0
Fe	0.3000000000	0.2857140000	0.0000000000	0	0	0
Fe	0.3000000000	0.4285710000	0.0000000000	0	0	0
Fe	0.3000000000	0.5714290000	0.0000000000	0	0	0
Fe	0.3000000000	0.7142860000	0.0000000000	0	0	0
Fe	0.3000000000	0.8571430000	0.0000000000	0	0	0
Fe	0.4000000000	0.0000000000	0.0000000000	0	0	0
Fe	0.4000000000	0.1428570000	0.0000000000	0	0	0
Fe	0.4000000000	0.2857140000	0.0000000000	0	0	0
Fe	0.4000000000	0.4285710000	0.0000000000	0	0	0
Fe	0.4000000000	0.5714290000	0.0000000000	0	0	0
Fe	0.4000000000	0.7142860000	0.0000000000	0	0	0
Fe	0.4000000000	0.8571430000	0.0000000000	0	0	0
Fe	0.5000000000	0.0000000000	0.0000000000	0	0	0
Fe	0.5000000000	0.1428570000	0.0000000000	0	0	0
Fe	0.5000000000	0.2857140000	0.0000000000	0	0	0
Fe	0.5000000000	0.4285710000	0.0000000000	0	0	0
Fe	0.5000000000	0.5714290000	0.0000000000	0	0	0
Fe	0.5000000000	0.7142860000	0.0000000000	0	0	0
Fe	0.5000000000	0.8571430000	0.0000000000	0	0	0
Fe	0.6000000000	0.0000000000	0.0000000000	0	0	0
Fe	0.6000000000	0.1428570000	0.0000000000	0	0	0
Fe	0.6000000000	0.2857140000	0.0000000000	0	0	0
Fe	0.6000000000	0.4285710000	0.0000000000	0	0	0
Fe	0.6000000000	0.5714290000	0.0000000000	0	0	0
Fe	0.6000000000	0.7142860000	0.0000000000	0	0	0
Fe	0.6000000000	0.8571430000	0.0000000000	0	0	0
Fe	0.7000000000	0.0000000000	0.0000000000	0	0	0
Fe	0.7000000000	0.1428570000	0.0000000000	0	0	0
Fe	0.7000000000	0.2857140000	0.0000000000	0	0	0
Fe	0.7000000000	0.4285710000	0.0000000000	0	0	0
Fe	0.7000000000	0.5714290000	0.0000000000	0	0	0
Fe	0.7000000000	0.7142860000	0.0000000000	0	0	0
Fe	0.7000000000	0.8571430000	0.0000000000	0	0	0
Fe	0.8000000000	0.0000000000	0.0000000000	0	0	0
Fe	0.8000000000	0.1428570000	0.0000000000	0	0	0
Fe	0.8000000000	0.2857140000	0.0000000000	0	0	0
Fe	0.8000000000	0.4285710000	0.0000000000	0	0	0
Fe	0.8000000000	0.5714290000	0.0000000000	0	0	0
Fe	0.8000000000	0.7142860000	0.0000000000	0	0	0
Fe	0.8000000000	0.8571430000	0.0000000000	0	0	0
Fe	0.9000000000	0.0000000000	0.0000000000	0	0	0
Fe	0.9000000000	0.1428570000	0.0000000000	0	0	0
Fe	0.9000000000	0.2857140000	0.0000000000	0	0	0
Fe	0.9000000000	0.4285710000	0.0000000000	0	0	0
Fe	0.9000000000	0.5714290000	0.0000000000	0	0	0
Fe	0.9000000000	0.7142860000	0.0000000000	0	0	0
Fe	0.9000000000	0.8571430000	0.0000000000	0	0	0
Fe	0.0500000000	0.0714290000	0.0000000000	0	0	0
Fe	0.0500000000	0.2142860000	0.0000000000	0	0	0
Fe	0.0500000000	0.3571430000	0.0000000000	0	0	0
Fe	0.0500000000	0.5000000000	0.0000000000	0	0	0
Fe	0.0500000000	0.6428580000	0.0000000000	0	0	0
Fe	0.0500000000	0.7857150000	0.0000000000	0	0	0
Fe	0.0500000000	0.9285720000	0.0000000000	0	0	0
Fe	0.1500000000	0.0714290000	0.0000000000	0	0	0
Fe	0.1500000000	0.2142860000	0.0000000000	0	0	0
Fe	0.1500000000	0.3571430000	0.0000000000	0	0	0
Fe	0.1500000000	0.5000000000	0.0000000000	0	0	0
Fe	0.1500000000	0.6428580000	0.0000000000	0	0	0
Fe	0.1500000000	0.7857150000	0.0000000000	0	0	0
Fe	0.1500000000	0.9285720000	0.0000000000	0	0	0
Fe	0.2500000000	0.0714290000	0.0000000000	0	0	0
Fe	0.2500000000	0.2142860000	0.0000000000	0	0	0
Fe	0.2500000000	0.3571430000	0.0000000000	0	0	0
Fe	0.2500000000	0.5000000000	0.0000000000	0	0	0
Fe	0.2500000000	0.6428580000	0.0000000000	0	0	0
Fe	0.2500000000	0.7857150000	0.0000000000	0	0	0
Fe	0.2500000000	0.9285720000	0.0000000000	0	0	0
Fe	0.3500000000	0.0714290000	0.0000000000	0	0	0
Fe	0.3500000000	0.2142860000	0.0000000000	0	0	0
Fe	0.3500000000	0.3571430000	0.0000000000	0	0	0
Fe	0.3500000000	0.5000000000	0.0000000000	0	0	0
Fe	0.3500000000	0.6428580000	0.0000000000	0	0	0
Fe	0.3500000000	0.7857150000	0.0000000000	0	0	0
Fe	0.3500000000	0.9285720000	0.0000000000	0	0	0
Fe	0.4500000000	0.0714290000	0.0000000000	0	0	0
Fe	0.4500000000	0.2142860000	0.0000000000	0	0	0
Fe	0.4500000000	0.3571430000	0.0000000000	0	0	0
Fe	0.4500000000	0.5000000000	0.0000000000	0	0	0
Fe	0.4500000000	0.6428580000	0.0000000000	0	0	0
Fe	0.4500000000	0.7857150000	0.0000000000	0	0	0
Fe	0.4500000000	0.9285720000	0.0000000000	0	0	0
Fe	0.5500000000	0.0714290000	0.0000000000	0	0	0
Fe	0.5500000000	0.2142860000	0.0000000000	0	0	0
Fe	0.5500000000	0.3571430000	0.0000000000	0	0	0
Fe	0.5500000000	0.5000000000	0.0000000000	0	0	0
Fe	0.5500000000	0.6428580000	0.0000000000	0	0	0
Fe	0.5500000000	0.7857150000	0.0000000000	0	0	0
Fe	0.5500000000	0.9285720000	0.0000000000	0	0	0
Fe	0.6500000000	0.0714290000	0.0000000000	0	0	0
Fe	0.6500000000	0.2142860000	0.0000000000	0	0	0
Fe	0.6500000000	0.3571430000	0.0000000000	0	0	0
Fe	0.6500000000	0.5000000000	0.0000000000	0	0	0
Fe	0.6500000000	0.6428580000	0.0000000000	0	0	0
Fe	0.6500000000	0.7857150000	0.0000000000	0	0	0
Fe	0.6500000000	0.9285720000	0.0000000000	0	0	0
Fe	0.7500000000	0.0714290000	0.0000000000	0	0	0
Fe	0.7500000000	0.2142860000	0.0000000000	0	0	0
Fe	0.7500000000	0.3571430000	0.0000000000	0	0	0
Fe	0.7500000000	0.5000000000	0.0000000000	0	0	0
Fe	0.7500000000	0.6428580000	0.0000000000	0	0	0
Fe	0.7500000000	0.7857150000	0.0000000000	0	0	0
Fe	0.7500000000	0.9285720000	0.0000000000	0	0	0
Fe	0.8500000000	0.0714290000	0.0000000000	0	0	0
Fe	0.8500000000	0.2142860000	0.0000000000	0	0	0
Fe	0.8500000000	0.3571430000	0.0000000000	0	0	0
Fe	0.8500000000	0.5000000000	0.0000000000	0	0	0
Fe	0.8500000000	0.6428580000	0.0000000000	0	0	0
Fe	0.8500000000	0.7857150000	0.0000000000	0	0	0
Fe	0.8500000000	0.9285720000	0.0000000000	0	0	0
Fe	0.9500000000	0.0714290000	0.0000000000	0	0	0
Fe	0.9500000000	0.2142860000	0.0000000000	0	0	0
Fe	0.9500000000	0.3571430000	0.0000000000	0	0	0
Fe	0.9500000000	0.5000000000	0.0000000000	0	0	0
Fe	0.9500000000	0.6428580000	0.0000000000	0	0	0
Fe	0.9500000000	0.7857150000	0.0000000000	0	0	0
Fe	0.9500000000	0.9285720000	0.0000000000	0	0	0
Fe	0.0500000000	0.0000000000	0.0555560000	1	1	1
Fe	0.0500000000	0.1428570000	0.0555560000	1	1	1
Fe	0.0500000000	0.2857140000	0.0555560000	1	1	1
Fe	0.0500000000	0.4285710000	0.0555560000	1	1	1
Fe	0.0500000000	0.5714290000	0.0555560000	1	1	1
Fe	0.0500000000	0.7142860000	0.0555560000	1	1	1
Fe	0.0500000000	0.8571430000	0.0555560000	1	1	1
Fe	0.1500000000	0.0000000000	0.0555560000	1	1	1
Fe	0.1500000000	0.1428570000	0.0555560000	1	1	1
Fe	0.1500000000	0.2857140000	0.0555560000	1	1	1
Fe	0.1500000000	0.4285710000	0.0555560000	1	1	1
Fe	0.1500000000	0.5714290000	0.0555560000	1	1	1
Fe	0.1500000000	0.7142860000	0.0555560000	1	1	1
Fe	0.1500000000	0.8571430000	0.0555560000	1	1	1
Fe	0.2500000000	0.0000000000	0.0555560000	1	1	1
Fe	0.2500000000	0.1428570000	0.0555560000	1	1	1
Fe	0.2500000000	0.2857140000	0.0555560000	1	1	1
Fe	0.2500000000	0.4285710000	0.0555560000	1	1	1
Fe	0.2500000000	0.5714290000	0.0555560000	1	1	1
Fe	0.2500000000	0.7142860000	0.0555560000	1	1	1
Fe	0.2500000000	0.8571430000	0.0555560000	1	1	1
Fe	0.3500000000	0.0000000000	0.0555560000	1	1	1
Fe	0.3500000000	0.1428570000	0.0555560000	1	1	1
Fe	0.3500000000	0.2857140000	0.0555560000	1	1	1
Fe	0.3500000000	0.4285710000	0.0555560000	1	1	1
Fe	0.3500000000	0.5714290000	0.0555560000	1	1	1
Fe	0.3500000000	0.7142860000	0.0555560000	1	1	1
Fe	0.3500000000	0.8571430000	0.0555560000	1	1	1
Fe	0.4500000000	0.0000000000	0.0555560000	1	1	1
Fe	0.4500000000	0.1428570000	0.0555560000	1	1	1
Fe	0.4500000000	0.2857140000	0.0555560000	1	1	1
Fe	0.4500000000	0.4285710000	0.0555560000	1	1	1
Fe	0.4500000000	0.5714290000	0.0555560000	1	1	1
Fe	0.4500000000	0.7142860000	0.0555560000	1	1	1
Fe	0.4500000000	0.8571430000	0.0555560000	1	1	1
Fe	0.5500000000	0.0000000000	0.0555560000	1	1	1
Fe	0.5500000000	0.1428570000	0.0555560000	1	1	1
Fe	0.5500000000	0.2857140000	0.0555560000	1	1	1
Fe	0.5500000000	0.4285710000	0.0555560000	1	1	1
Fe	0.5500000000	0.5714290000	0.0555560000	1	1	1
Fe	0.5500000000	0.7142860000	0.0555560000	1	1	1
Fe	0.5500000000	0.8571430000	0.0555560000	1	1	1
Fe	0.6500000000	0.0000000000	0.0555560000	1	1	1
Fe	0.6500000000	0.1428570000	0.0555560000	1	1	1
Fe	0.6500000000	0.2857140000	0.0555560000	1	1	1
Fe	0.6500000000	0.4285710000	0.0555560000	1	1	1
Fe	0.6500000000	0.5714290000	0.0555560000	1	1	1
Fe	0.6500000000	0.7142860000	0.0555560000	1	1	1
Fe	0.6500000000	0.8571430000	0.0555560000	1	1	1
Fe	0.7500000000	0.0000000000	0.0555560000	1	1	1
Fe	0.7500000000	0.1428570000	0.0555560000	1	1	1
Fe	0.7500000000	0.2857140000	0.0555560000	1	1	1
Fe	0.7500000000	0.4285710000	0.0555560000	1	1	1
Fe	0.7500000000	0.5714290000	0.0555560000	1	1	1
Fe	0.7500000000	0.7142860000	0.0555560000	1	1	1
Fe	0.7500000000	0.8571430000	0.0555560000	1	1	1
Fe	0.8500000000	0.0000000000	0.0555560000	1	1	1
Fe	0.8500000000	0.1428570000	0.0555560000	1	1	1
Fe	0.8500000000	0.2857140000	0.0555560000	1	1	1
Fe	0.8500000000	0.4285710000	0.0555560000	1	1	1
Fe	0.8500000000	0.5714290000	0.0555560000	1	1	1
Fe	0.8500000000	0.7142860000	0.0555560000	1	1	1
Fe	0.8500000000	0.8571430000	0.0555560000	1	1	1
Fe	0.9500000000	0.0000000000	0.0555560000	1	1	1
Fe	0.9500000000	0.1428570000	0.0555560000	1	1	1
Fe	0.9500000000	0.2857140000	0.0555560000	1	1	1
Fe	0.9500000000	0.4285710000	0.0555560000	1	1	1
Fe	0.9500000000	0.5714290000	0.0555560000	1	1	1
Fe	0.9500000000	0.7142860000	0.0555560000	1	1	1
Fe	0.9500000000	0.8571430000	0.0555560000	1	1	1
Fe	0.0000000000	0.0714290000	0.1666670000	1	1	1
Fe	0.0000000000	0.2142860000	0.1666670000	1	1	1
Fe	0.0000000000	0.3571430000	0.1666670000	1	1	1
Fe	0.0000000000	0.5000000000	0.1666670000	1	1	1
Fe	0.0000000000	0.6428580000	0.1666670000	1	1	1
Fe	0.0000000000	0.7857150000	0.1666670000	1	1	1
Fe	0.0000000000	0.9285720000	0.1666670000	1	1	1
Fe	0.1000000000	0.0714290000	0.1666670000	1	1	1
Fe	0.1000000000	0.2142860000	0.1666670000	1	1	1
Fe	0.1000000000	0.3571430000	0.1666670000	1	1	1
Fe	0.1000000000	0.5000000000	0.1666670000	1	1	1
Fe	0.1000000000	0.6428580000	0.1666670000	1	1	1
Fe	0.1000000000	0.7857150000	0.1666670000	1	1	1
Fe	0.1000000000	0.9285720000	0.1666670000	1	1	1
Fe	0.2000000000	0.0714290000	0.1666670000	1	1	1
Fe	0.2000000000	0.2142860000	0.1666670000	1	1	1
Fe	0.2000000000	0.3571430000	0.1666670000	1	1	1
Fe	0.2000000000	0.5000000000	0.1666670000	1	1	1
Fe	0.2000000000	0.6428580000	0.1666670000	1	1	1
Fe	0.2000000000	0.7857150000	0.1666670000	1	1	1
Fe	0.2000000000	0.9285720000	0.1666670000	1	1	1
Fe	0.3000000000	0.0714290000	0.1666670000	1	1	1
Fe	0.3000000000	0.2142860000	0.1666670000	1	1	1
Fe	0.3000000000	0.3571430000	0.1666670000	1	1	1
Fe	0.3000000000	0.5000000000	0.1666670000	1	1	1
Fe	0.3000000000	0.6428580000	0.1666670000	1	1	1
Fe	0.3000000000	0.7857150000	0.1666670000	1	1	1
Fe	0.3000000000	0.9285720000	0.1666670000	1	1	1
Fe	0.4000000000	0.0714290000	0.1666670000	1	1	1
Fe	0.4000000000	0.2142860000	0.1666670000	1	1	1
Fe	0.4000000000	0.3571430000	0.1666670000	1	1	1
Fe	0.4000000000	0.5000000000	0.1666670000	1	1	1
Fe	0.4000000000	0.6428580000	0.1666670000	1	1	1
Fe	0.4000000000	0.7857150000	0.1666670000	1	1	1
Fe	0.4000000000	0.9285720000	0.1666670000	1	1	1
Fe	0.5000000000	0.0714290000	0.1666670000	1	1	1
Fe	0.5000000000	0.2142860000	0.1666670000	1	1	1
Fe	0.5000000000	0.3571430000	0.1666670000	1	1	1
Fe	0.5000000000	0.5000000000	0.1666670000	1	1	1
Fe	0.5000000000	0.6428580000	0.1666670000	1	1	1
Fe	0.5000000000	0.7857150000	0.1666670000	1	1	1
Fe	0.5000000000	0.9285720000	0.1666670000	1	1	1
Fe	0.6000000000	0.0714290000	0.1666670000	1	1	1
Fe	0.6000000000	0.2142860000	0.1666670000	1	1	1
Fe	0.6000000000	0.3571430000	0.1666670000	1	1	1
Fe	0.6000000000	0.5000000000	0.1666670000	1	1	1
Fe	0.6000000000	0.6428580000	0.1666670000	1	1	1
Fe	0.6000000000	0.7857150000	0.1666670000	1	1	1
Fe	0.6000000000	0.9285720000	0.1666670000	1	1	1
Fe	0.7000000000	0.0714290000	0.1666670000	1	1	1
Fe	0.7000000000	0.2142860000	0.1666670000	1	1	1
Fe	0.7000000000	0.3571430000	0.1666670000	1	1	1
Fe	0.7000000000	0.5000000000	0.1666670000	1	1	1
Fe	0.7000000000	0.6428580000	0.1666670000	1	1	1
Fe	0.7000000000	0.7857150000	0.1666670000	1	1	1
Fe	0.7000000000	0.9285720000	0.1666670000	1	1	1
Fe	0.8000000000	0.0714290000	0.1666670000	1	1	1
Fe	0.8000000000	0.2142860000	0.1666670000	1	1	1
Fe	0.8000000000	0.3571430000	0.1666670000	1	1	1
Fe	0.8000000000	0.5000000000	0.1666670000	1	1	1
Fe	0.8000000000	0.6428580000	0.1666670000	1	1	1
Fe	0.8000000000	0.7857150000	0.1666670000	1	1	1
Fe	0.8000000000	0.9285720000	0.1666670000	1	1	1
Fe	0.9000000000	0.0714290000	0.1666670000	1	1	1
Fe	0.9000000000	0.2142860000	0.1666670000	1	1	1
Fe	0.9000000000	0.3571430000	0.1666670000	1	1	1
Fe	0.9000000000	0.5000000000	0.1666670000	1	1	1
Fe	0.9000000000	0.6428580000	0.1666670000	1	1	1
Fe	0.9000000000	0.7857150000	0.1666670000	1	1	1
Fe	0.9000000000	0.9285720000	0.1666670000	1	1	1
Fe	0.0000000000	0.0000000000	0.1111110000	1	1	1
Fe	0.0000000000	0.1428570000	0.1111110000	1	1	1
Fe	0.0000000000	0.2857140000	0.1111110000	1	1	1
Fe	0.0000000000	0.4285710000	0.1111110000	1	1	1
Fe	0.0000000000	0.5714290000	0.1111110000	1	1	1
Fe	0.0000000000	0.7142860000	0.1111110000	1	1	1
Fe	0.0000000000	0.8571430000	0.1111110000	1	1	1
Fe	0.1000000000	0.0000000000	0.1111110000	1	1	1
Fe	0.1000000000	0.1428570000	0.1111110000	1	1	1
Fe	0.1000000000	0.2857140000	0.1111110000	1	1	1
Fe	0.1000000000	0.4285710000	0.1111110000	1	1	1
Fe	0.1000000000	0.5714290000	0.1111110000	1	1	1
Fe	0.1000000000	0.7142860000	0.1111110000	1	1	1
Fe	0.1000000000	0.8571430000	0.1111110000	1	1	1
Fe	0.2000000000	0.0000000000	0.1111110000	1	1	1
Fe	0.2000000000	0.1428570000	0.1111110000	1	1	1
Fe	0.2000000000	0.2857140000	0.1111110000	1	1	1
Fe	0.2000000000	0.4285710000	0.1111110000	1	1	1
Fe	0.2000000000	0.5714290000	0.1111110000	1	1	1
Fe	0.2000000000	0.7142860000	0.1111110000	1	1	1
Fe	0.2000000000	0.8571430000	0.1111110000	1	1	1
Fe	0.3000000000	0.0000000000	0.1111110000	1	1	1
Fe	0.3000000000	0.1428570000	0.1111110000	1	1	1
Fe	0.3000000000	0.2857140000	0.1111110000	1	1	1
Fe	0.3000000000	0.4285710000	0.1111110000	1	1	1
Fe	0.3000000000	0.5714290000	0.1111110000	1	1	1
Fe	0.3000000000	0.7142860000	0.1111110000	1	1	1
Fe	0.3000000000	0.8571430000	0.1111110000	1	1	1
Fe	0.4000000000	0.0000000000	0.1111110000	1	1	1
Fe	0.4000000000	0.1428570000	0.1111110000	1	1	1
Fe	0.4000000000	0.2857140000	0.1111110000	1	1	1
Fe	0.4000000000	0.4285710000	0.1111110000	1	1	1
Fe	0.4000000000	0.5714290000	0.1111110000	1	1	1
Fe	0.4000000000	0.7142860000	0.1111110000	1	1	1
Fe	0.4000000000	0.8571430000	0.1111110000	1	1	1
Fe	0.5000000000	0.0000000000	0.1111110000	1	1	1
Fe	0.5000000000	0.1428570000	0.1111110000	1	1	1
Fe	0.5000000000	0.2857140000	0.1111110000	1	1	1
Fe	0.5000000000	0.4285710000	0.1111110000	1	1	1
Fe	0.5000000000	0.5714290000	0.1111110000	1	1	1
Fe	0.5000000000	0.7142860000	0.1111110000	1	1	1
Fe	0.5000000000	0.8571430000	0.1111110000	1	1	1
Fe	0.6000000000	0.0000000000	0.1111110000	1	1	1
Fe	0.6000000000	0.1428570000	0.1111110000	1	1	1
Fe	0.6000000000	0.2857140000	0.1111110000	1	1	1
Fe	0.6000000000	0.4285710000	0.1111110000	1	1	1
Fe	0.6000000000	0.5714290000	0.1111110000	1	1	1
Fe	0.6000000000	0.7142860000	0.1111110000	1	1	1
Fe	0.6000000000	0.8571430000	0.1111110000	1	1	1
Fe	0.7000000000	0.0000000000	0.1111110000	1	1	1
Fe	0.7000000000	0.1428570000	0.1111110000	1	1	1
Fe	0.7000000000	0.2857140000	0.1111110000	1	1	1
Fe	0.7000000000	0.4285710000	0.1111110000	1	1	1
Fe	0.7000000000	0.5714290000	0.1111110000	1	1	1
Fe	0.7000000000	0.7142860000	0.1111110000	1	1	1
Fe	0.7000000000	0.8571430000	0.1111110000	1	1	1
Fe	0.8000000000	0.0000000000	0.1111110000	1	1	1
Fe	0.8000000000	0.1428570000	0.1111110000	1	1	1
Fe	0.8000000000	0.2857140000	0.1111110000	1	1	1
Fe	0.8000000000	0.4285710000	0.1111110000	1	1	1
Fe	0.8000000000	0.5714290000	0.1111110000	1	1	1
Fe	0.8000000000	0.7142860000	0.1111110000	1	1	1
Fe	0.8000000000	0.8571430000	0.1111110000	1	1	1
Fe	0.9000000000	0.0000000000	0.1111110000	1	1	1
Fe	0.9000000000	0.1428570000	0.1111110000	1	1	1
Fe	0.9000000000	0.2857140000	0.1111110000	1	1	1
Fe	0.9000000000	0.4285710000	0.1111110000	1	1	1
Fe	0.9000000000	0.5714290000	0.1111110000	1	1	1
Fe	0.9000000000	0.7142860000	0.1111110000	1	1	1
Fe	0.9000000000	0.8571430000	0.1111110000	1	1	1
Fe	0.0500000000	0.0714290000	0.1111110000	1	1	1
Fe	0.0500000000	0.2142860000	0.1111110000	1	1	1
Fe	0.0500000000	0.3571430000	0.1111110000	1	1	1
Fe	0.0500000000	0.5000000000	0.1111110000	1	1	1
Fe	0.0500000000	0.6428580000	0.1111110000	1	1	1
Fe	0.0500000000	0.7857150000	0.1111110000	1	1	1
Fe	0.0500000000	0.9285720000	0.1111110000	1	1	1
Fe	0.1500000000	0.0714290000	0.1111110000	1	1	1
Fe	0.1500000000	0.2142860000	0.1111110000	1	1	1
Fe	0.1500000000	0.3571430000	0.1111110000	1	1	1
Fe	0.1500000000	0.5000000000	0.1111110000	1	1	1
Fe	0.1500000000	0.6428580000	0.1111110000	1	1	1
Fe	0.1500000000	0.7857150000	0.1111110000	1	1	1
Fe	0.1500000000	0.9285720000	0.1111110000	1	1	1
Fe	0.2500000000	0.0714290000	0.1111110000	1	1	1
Fe	0.2500000000	0.2142860000	0.1111110000	1	1	1
Fe	0.2500000000	0.3571430000	0.1111110000	1	1	1
Fe	0.2500000000	0.5000000000	0.1111110000	1	1	1
Fe	0.2500000000	0.6428580000	0.1111110000	1	1	1
Fe	0.2500000000	0.7857150000	0.1111110000	1	1	1
Fe	0.2500000000	0.9285720000	0.1111110000	1	1	1
Fe	0.3500000000	0.0714290000	0.1111110000	1	1	1
Fe	0.3500000000	0.2142860000	0.1111110000	1	1	1
Fe	0.3500000000	0.3571430000	0.1111110000	1	1	1
Fe	0.3500000000	0.5000000000	0.1111110000	1	1	1
Fe	0.3500000000	0.6428580000	0.1111110000	1	1	1
Fe	0.3500000000	0.7857150000	0.1111110000	1	1	1
Fe	0.3500000000	0.9285720000	0.1111110000	1	1	1
Fe	0.4500000000	0.0714290000	0.1111110000	1	1	1
Fe	0.4500000000	0.2142860000	0.1111110000	1	1	1
Fe	0.4500000000	0.3571430000	0.1111110000	1	1	1
Fe	0.4500000000	0.5000000000	0.1111110000	1	1	1
Fe	0.4500000000	0.6428580000	0.1111110000	1	1	1
Fe	0.4500000000	0.7857150000	0.1111110000	1	1	1
Fe	0.4500000000	0.9285720000	0.1111110000	1	1	1
Fe	0.5500000000	0.0714290000	0.1111110000	1	1	1
Fe	0.5500000000	0.2142860000	0.1111110000	1	1	1
Fe	0.5500000000	0.3571430000	0.1111110000	1	1	1
Fe	0.5500000000	0.5000000000	0.1111110000	1	1	1
Fe	0.5500000000	0.6428580000	0.1111110000	1	1	1
Fe	0.5500000000	0.7857150000	0.1111110000	1	1	1
Fe	0.5500000000	0.9285720000	0.1111110000	1	1	1
Fe	0.6500000000	0.0714290000	0.1111110000	1	1	1
Fe	0.6500000000	0.2142860000	0.1111110000	1	1	1
Fe	0.6500000000	0.3571430000	0.1111110000	1	1	1
Fe	0.6500000000	0.5000000000	0.1111110000	1	1	1
Fe	0.6500000000	0.6428580000	0.1111110000	1	1	1
Fe	0.6500000000	0.7857150000	0.1111110000	1	1	1
Fe	0.6500000000	0.9285720000	0.1111110000	1	1	1
Fe	0.7500000000	0.0714290000	0.1111110000	1	1	1
Fe	0.7500000000	0.2142860000	0.1111110000	1	1	1
Fe	0.7500000000	0.3571430000	0.1111110000	1	1	1
Fe	0.7500000000	0.5000000000	0.1111110000	1	1	1
Fe	0.7500000000	0.6428580000	0.1111110000	1	1	1
Fe	0.7500000000	0.7857150000	0.1111110000	1	1	1
Fe	0.7500000000	0.9285720000	0.1111110000	1	1	1
Fe	0.8500000000	0.0714290000	0.1111110000	1	1	1
Fe	0.8500000000	0.2142860000	0.1111110000	1	1	1
Fe	0.8500000000	0.3571430000	0.1111110000	1	1	1
Fe	0.8500000000	0.5000000000	0.1111110000	1	1	1
Fe	0.8500000000	0.6428580000	0.1111110000	1	1	1
Fe	0.8500000000	0.7857150000	0.1111110000	1	1	1
Fe	0.8500000000	0.9285720000	0.1111110000	1	1	1
Fe	0.9500000000	0.0714290000	0.1111110000	1	1	1
Fe	0.9500000000	0.2142860000	0.1111110000	1	1	1
Fe	0.9500000000	0.3571430000	0.1111110000	1	1	1
Fe	0.9500000000	0.5000000000	0.1111110000	1	1	1
Fe	0.9500000000	0.6428580000	0.1111110000	1	1	1
Fe	0.9500000000	0.7857150000	0.1111110000	1	1	1
Fe	0.9500000000	0.9285720000	0.1111110000	1	1	1
Fe	0.0500000000	0.0000000000	0.1666670000	1	1	1
Fe	0.0500000000	0.1428570000	0.1666670000	1	1	1
Fe	0.0500000000	0.2857140000	0.1666670000	1	1	1
Fe	0.0500000000	0.4285710000	0.1666670000	1	1	1
Fe	0.0500000000	0.5714290000	0.1666670000	1	1	1
Fe	0.0500000000	0.7142860000	0.1666670000	1	1	1
Fe	0.0500000000	0.8571430000	0.1666670000	1	1	1
Fe	0.1500000000	0.0000000000	0.1666670000	1	1	1
Fe	0.1500000000	0.1428570000	0.1666670000	1	1	1
Fe	0.1500000000	0.2857140000	0.1666670000	1	1	1
Fe	0.1500000000	0.4285710000	0.1666670000	1	1	1
Fe	0.1500000000	0.5714290000	0.1666670000	1	1	1
Fe	0.1500000000	0.7142860000	0.1666670000	1	1	1
Fe	0.1500000000	0.8571430000	0.1666670000	1	1	1
Fe	0.2500000000	0.0000000000	0.1666670000	1	1	1
Fe	0.2500000000	0.1428570000	0.1666670000	1	1	1
Fe	0.2500000000	0.2857140000	0.1666670000	1	1	1
Fe	0.2500000000	0.4285710000	0.1666670000	1	1	1
Fe	0.2500000000	0.5714290000	0.1666670000	1	1	1
Fe	0.2500000000	0.7142860000	0.1666670000	1	1	1
Fe	0.2500000000	0.8571430000	0.1666670000	1	1	1
Fe	0.3500000000	0.0000000000	0.1666670000	1	1	1
Fe	0.3500000000	0.1428570000	0.1666670000	1	1	1
Fe	0.3500000000	0.2857140000	0.1666670000	1	1	1
Fe	0.3500000000	0.4285710000	0.1666670000	1	1	1
Fe	0.3500000000	0.5714290000	0.1666670000	1	1	1
Fe	0.3500000000	0.7142860000	0.1666670000	1	1	1
Fe	0.3500000000	0.8571430000	0.1666670000	1	1	1
Fe	0.4500000000	0.0000000000	0.1666670000	1	1	1
Fe	0.4500000000	0.1428570000	0.1666670000	1	1	1
Fe	0.4500000000	0.2857140000	0.1666670000	1	1	1
Fe	0.4500000000	0.4285710000	0.1666670000	1	1	1
Fe	0.4500000000	0.5714290000	0.1666670000	1	1	1
Fe	0.4500000000	0.7142860000	0.1666670000	1	1	1
Fe	0.4500000000	0.8571430000	0.1666670000	1	1	1
Fe	0.5500000000	0.0000000000	0.1666670000	1	1	1
Fe	0.5500000000	0.1428570000	0.1666670000	1	1	1
Fe	0.5500000000	0.2857140000	0.1666670000	1	1	1
Fe	0.5500000000	0.4285710000	0.1666670000	1	1	1
Fe	0.5500000000	0.5714290000	0.1666670000	1	1	1
Fe	0.5500000000	0.7142860000	0.1666670000	1	1	1
Fe	0.5500000000	0.8571430000	0.1666670000	1	1	1
Fe	0.6500000000	0.0000000000	0.1666670000	1	1	1
Fe	0.6500000000	0.1428570000	0.1666670000	1	1	1
Fe	0.6500000000	0.2857140000	0.1666670000	1	1	1
Fe	0.6500000000	0.4285710000	0.1666670000	1	1	1
Fe	0.6500000000	0.5714290000	0.1666670000	1	1	1
Fe	0.6500000000	0.7142860000	0.1666670000	1	1	1
Fe	0.6500000000	0.8571430000	0.1666670000	1	1	1
Fe	0.7500000000	0.0000000000	0.1666670000	1	1	1
Fe	0.7500000000	0.1428570000	0.1666670000	1	1	1
Fe	0.7500000000	0.2857140000	0.1666670000	1	1	1
Fe	0.7500000000	0.4285710000	0.1666670000	1	1	1
Fe	0.7500000000	0.5714290000	0.1666670000	1	1	1
Fe	0.7500000000	0.7142860000	0.1666670000	1	1	1
Fe	0.7500000000	0.8571430000	0.1666670000	1	1	1
Fe	0.8500000000	0.0000000000	0.1666670000	1	1	1
Fe	0.8500000000	0.1428570000	0.1666670000	1	1	1
Fe	0.8500000000	0.2857140000	0.1666670000	1	1	1
Fe	0.8500000000	0.4285710000	0.1666670000	1	1	1
Fe	0.8500000000	0.5714290000	0.1666670000	1	1	1
Fe	0.8500000000	0.7142860000	0.1666670000	1	1	1
Fe	0.8500000000	0.8571430000	0.1666670000	1	1	1
Fe	0.9500000000	0.0000000000	0.1666670000	1	1	1
Fe	0.9500000000	0.1428570000	0.1666670000	1	1	1
Fe	0.9500000000	0.2857140000	0.1666670000	1	1	1
Fe	0.9500000000	0.4285710000	0.1666670000	1	1	1
Fe	0.9500000000	0.5714290000	0.1666670000	1	1	1
Fe	0.9500000000	0.7142860000	0.1666670000	1	1	1
Fe	0.9500000000	0.8571430000	0.1666670000	1	1	1
O	0.5583040000	0.5344210000	0.3904873200	1	1	1
C	0.5940060000	0.6209710000	0.3175787190	1	1	1
C	0.6340210000	0.5910710000	0.3020565210	1	1	1
C	0.6257290000	0.5421030000	0.3204525690	1	1	1
N	0.5742250000	0.5377370000	0.3223643490	1	1	1
C	0.5561800000	0.5843830000	0.3160087530	1	1	1
C	0.3984270000	0.4375310000	0.3114273270	1	1	1
C	0.3509530000	0.4423190000	0.3316054790	1	1	1
C	0.3410500000	0.4947270000	0.3347464700	1	1	1
C	0.3778370000	0.5216520000	0.3567013570	1	1	1
C	0.4239120000	0.5135910000	0.3389752140	1	1	1
N	0.4333850000	0.4648770000	0.3299789640	1	1	1
C	0.5541360000	0.5126740000	0.3538942270	1	1	1
H	0.6398340000	0.5453120000	0.3499716760	1	1	1
C	0.5696670000	0.4627190000	0.3567017580	1	1	1
C	0.5563280000	0.4343150000	0.3205077500	1	1	1
C	0.4758610000	0.4672040000	0.3076010200	1	1	1
O	0.4764450000	0.4951740000	0.2722507280	1	1	1
C	0.5045480000	0.4243320000	0.3068569120	1	1	1
C	0.5081850000	0.3977640000	0.2693697650	1	1	1
C	0.5489980000	0.4350720000	0.3903760160	1	1	1
C	0.5790600000	0.4332230000	0.4260861880	1	1	1
H	0.6071790000	0.6340670000	0.3438228210	1	1	1
H	0.5867910000	0.6485900000	0.2981869750	1	1	1
H	0.6335620000	0.5921480000	0.2727385300	1	1	1
H	0.6665500000	0.6050890000	0.3099874680	1	1	1
H	0.6461460000	0.5205030000	0.3035061670	1	1	1
H	0.5399280000	0.5848700000	0.2887663730	1	1	1
H	0.5292430000	0.5902900000	0.3374315120	1	1	1
H	0.4123620000	0.4029480000	0.3139531850	1	1	1
H	0.3922260000	0.4447380000	0.2825058150	1	1	1
H	0.3562880000	0.4284090000	0.3600512880	1	1	1
H	0.3225780000	0.4242870000	0.3151876800	1	1	1
H	0.3087360000	0.4997030000	0.3485934070	1	1	1
H	0.3408230000	0.5095110000	0.3072764550	1	1	1
H	0.3767200000	0.5110700000	0.3864814030	1	1	1
H	0.3717200000	0.5597470000	0.3507385020	1	1	1
H	0.4507430000	0.5232500000	0.3587656710	1	1	1
H	0.4299220000	0.5387600000	0.3159683540	1	1	1
H	0.6076330000	0.4587350000	0.3571705010	1	1	1
H	0.5731010000	0.3986100000	0.3227077950	1	1	1
H	0.5770020000	0.4481610000	0.2981038460	1	1	1
H	0.4906980000	0.3982480000	0.3261756240	1	1	1